15 7 3 16 17 12 13 4 2 10 1 19 8 11 18 9 5 0 14 6  
15 7 3 16 12 17 13 4 8 10 1 19 2 11 18 0 5 14 6 9  
15 7 3 16 4 12 10 8 1 19 2 13 17 11 18 9 0 5 14 6  
15 7 3 16 17 12 13 2 10 1 19 4 8 9 5 11 18 0 14 6  
15 7 3 16 17 12 13 10 2 1 19 4 8 9 5 11 18 0 14 6  
15 7 3 16 17 4 12 10 8 1 19 2 13 9 11 5 18 0 14 6  
15 7 3 16 17 12 13 10 2 1 19 4 8 9 5 11 18 0 14 6  
15 7 3 16 17 12 13 4 8 10 1 19 9 5 14 2 18 0 11 6  
15 7 3 16 17 12 13 4 8 10 1 19 2 9 5 11 18 0 14 6  
15 7 17 3 16 4 12 10 8 1 19 9 2 13 11 5 18 0 14 6  
15 7 3 16 17 12 13 10 2 1 19 4 8 9 5 11 18 0 14 6  
15 7 3 16 17 12 13 2 10 1 19 4 8 9 5 11 18 0 14 6  
15 7 17 16 3 12 13 4 2 10 1 19 8 11 18 0 5 14 6 9  
15 7 3 16 17 12 13 10 2 1 19 4 9 8 5 11 18 0 14 6  
15 7 3 16 17 0 12 13 2 1 19 4 5 11 18 10 14 8 6 9  
15 7 3 16 17 12 13 4 8 10 1 19 2 9 5 11 18 0 14 6  
15 7 3 16 4 12 8 10 1 19 2 17 13 11 18 9 5 0 14 6  
15 7 3 16 17 12 13 4 8 10 1 19 2 11 18 0 5 14 9 6  
15 7 3 16 17 12 13 4 2 10 1 19 8 11 5 18 0 14 6 9  
15 7 3 16 17 12 13 4 2 10 1 19 8 11 5 0 18 14 9 6  
15 7 3 16 12 4 8 10 1 19 2 17 13 11 18 0 5 6 9 14  
15 7 17 16 3 12 13 4 2 10 1 19 8 11 5 0 18 14 9 6  
15 7 3 16 17 12 13 4 8 10 1 19 2 11 5 0 18 14 9 6  
15 7 17 16 3 12 13 4 2 10 1 19 8 11 18 0 5 14 6 9  
15 7 3 16 17 12 13 4 8 10 1 19 2 9 5 11 18 0 14 6  
15 7 3 16 12 4 8 10 1 19 2 17 13 11 18 9 5 0 14 6  
15 7 3 16 17 12 10 8 1 19 14 2 13 4 18 9 11 5 0 6  
15 7 3 16 17 0 12 13 4 1 19 2 11 10 18 5 9 14 8 6  
15 7 3 16 17 12 10 8 1 19 14 2 13 4 9 18 11 5 0 6  
15 7 3 16 17 4 12 10 8 1 19 2 13 9 11 5 18 0 14 6  
15 7 3 16 17 12 13 4 8 10 1 19 2 9 5 11 18 0 14 6  
15 7 3 16 12 4 8 10 1 19 2 17 13 11 18 0 5 6 9 14  
15 7 3 16 17 0 12 13 4 1 19 2 11 10 18 5 9 14 8 6  
15 7 3 16 17 12 10 8 1 19 9 13 4 2 5 11 18 0 14 6  
15 7 3 16 12 4 8 10 1 19 2 17 13 11 18 9 5 0 14 6  
15 7 17 16 3 12 13 4 8 10 1 19 9 5 6 2 18 0 11 14  
15 7 3 16 12 17 13 4 8 10 1 19 2 11 18 0 5 14 6 9  
15 7 17 16 3 12 13 4 8 10 1 19 9 5 14 2 0 18 11 6  
15 7 3 16 12 17 8 10 1 19 9 13 4 2 11 5 18 0 14 6  
15 7 3 17 16 0 12 13 4 1 19 2 11 10 18 8 5 14 9 6  
15 7 17 16 3 12 13 4 8 10 1 19 9 5 14 2 0 18 11 6  
15 7 3 16 17 0 12 13 4 1 19 2 11 10 18 5 8 14 9 6  
15 7 3 16 17 12 10 8 1 19 9 13 4 2 11 5 18 0 14 6  
